p cnf 386 460
15 -8 1 21 22 0
15 -8 1 21 -22 0
15 -8 1 -21 23 0
15 -8 1 -21 -23 0
15 6 -13 24 25 0
15 6 -13 24 -25 0
15 6 -13 -24 26 0
15 6 -13 -24 -26 0
7 -8 11 27 28 0
7 -8 11 27 -28 0
7 -8 11 -27 29 0
7 -8 11 -27 -29 0
-7 15 -10 30 31 0
-7 15 -10 30 -31 0
-7 15 -10 -30 32 0
-7 15 -10 -30 -32 0
13 16 12 33 34 0
13 16 12 33 -34 0
13 16 12 -33 35 0
13 16 12 -33 -35 0
-11 -17 12 36 37 0
-11 -17 12 36 -37 0
-11 -17 12 -36 38 0
-11 -17 12 -36 -38 0
13 -19 17 39 40 0
13 -19 17 39 -40 0
13 -19 17 -39 41 0
13 -19 17 -39 -41 0
10 2 -8 42 43 0
10 2 -8 42 -43 0
10 2 -8 -42 44 0
10 2 -8 -42 -44 0
16 -18 -7 45 46 0
16 -18 -7 45 -46 0
16 -18 -7 -45 47 0
16 -18 -7 -45 -47 0
-16 -9 -7 48 49 0
-16 -9 -7 48 -49 0
-16 -9 -7 -48 50 0
-16 -9 -7 -48 -50 0
15 9 13 51 52 0
15 9 13 51 -52 0
15 9 13 -51 53 0
15 9 13 -51 -53 0
6 -1 2 54 55 0
6 -1 2 54 -55 0
6 -1 2 -54 56 0
6 -1 2 -54 -56 0
-18 14 12 57 58 0
-18 14 12 57 -58 0
-18 14 12 -57 59 0
-18 14 12 -57 -59 0
-15 -1 -13 60 61 0
-15 -1 -13 60 -61 0
-15 -1 -13 -60 62 0
-15 -1 -13 -60 -62 0
11 7 -18 63 64 0
11 7 -18 63 -64 0
11 7 -18 -63 65 0
11 7 -18 -63 -65 0
4 -19 17 66 67 0
4 -19 17 66 -67 0
4 -19 17 -66 68 0
4 -19 17 -66 -68 0
-11 13 3 69 70 0
-11 13 3 69 -70 0
-11 13 3 -69 71 0
-11 13 3 -69 -71 0
17 19 -16 72 73 0
17 19 -16 72 -73 0
17 19 -16 -72 74 0
17 19 -16 -72 -74 0
-1 17 -6 75 76 0
-1 17 -6 75 -76 0
-1 17 -6 -75 77 0
-1 17 -6 -75 -77 0
5 6 9 78 79 0
5 6 9 78 -79 0
5 6 9 -78 80 0
5 6 9 -78 -80 0
-4 5 13 81 82 0
-4 5 13 81 -82 0
-4 5 13 -81 83 0
-4 5 13 -81 -83 0
-8 -9 -3 84 85 0
-8 -9 -3 84 -85 0
-8 -9 -3 -84 86 0
-8 -9 -3 -84 -86 0
-11 -15 16 87 88 0
-11 -15 16 87 -88 0
-11 -15 16 -87 89 0
-11 -15 16 -87 -89 0
12 16 11 90 91 0
12 16 11 90 -91 0
12 16 11 -90 92 0
12 16 11 -90 -92 0
14 10 -12 93 94 0
14 10 -12 93 -94 0
14 10 -12 -93 95 0
14 10 -12 -93 -95 0
10 13 4 96 97 0
10 13 4 96 -97 0
10 13 4 -96 98 0
10 13 4 -96 -98 0
6 16 -19 99 100 0
6 16 -19 99 -100 0
6 16 -19 -99 101 0
6 16 -19 -99 -101 0
8 19 10 102 103 0
8 19 10 102 -103 0
8 19 10 -102 104 0
8 19 10 -102 -104 0
-8 1 5 105 106 0
-8 1 5 105 -106 0
-8 1 5 -105 107 0
-8 1 5 -105 -107 0
-6 4 18 108 109 0
-6 4 18 108 -109 0
-6 4 18 -108 110 0
-6 4 18 -108 -110 0
-16 19 20 111 112 0
-16 19 20 111 -112 0
-16 19 20 -111 113 0
-16 19 20 -111 -113 0
-3 8 -11 114 115 0
-3 8 -11 114 -115 0
-3 8 -11 -114 116 0
-3 8 -11 -114 -116 0
-10 13 20 117 118 0
-10 13 20 117 -118 0
-10 13 20 -117 119 0
-10 13 20 -117 -119 0
19 -6 -7 120 121 0
19 -6 -7 120 -121 0
19 -6 -7 -120 122 0
19 -6 -7 -120 -122 0
-12 -11 8 123 124 0
-12 -11 8 123 -124 0
-12 -11 8 -123 125 0
-12 -11 8 -123 -125 0
13 16 -4 126 127 0
13 16 -4 126 -127 0
13 16 -4 -126 128 0
13 16 -4 -126 -128 0
13 -6 2 129 130 0
13 -6 2 129 -130 0
13 -6 2 -129 131 0
13 -6 2 -129 -131 0
-1 6 -16 132 133 0
-1 6 -16 132 -133 0
-1 6 -16 -132 134 0
-1 6 -16 -132 -134 0
-8 -3 -2 135 136 0
-8 -3 -2 135 -136 0
-8 -3 -2 -135 137 0
-8 -3 -2 -135 -137 0
-5 -3 6 138 139 0
-5 -3 6 138 -139 0
-5 -3 6 -138 140 0
-5 -3 6 -138 -140 0
17 12 19 141 142 0
17 12 19 141 -142 0
17 12 19 -141 143 0
17 12 19 -141 -143 0
-14 -13 7 144 145 0
-14 -13 7 144 -145 0
-14 -13 7 -144 146 0
-14 -13 7 -144 -146 0
-19 -16 -9 147 148 0
-19 -16 -9 147 -148 0
-19 -16 -9 -147 149 0
-19 -16 -9 -147 -149 0
-11 -3 16 150 151 0
-11 -3 16 150 -151 0
-11 -3 16 -150 152 0
-11 -3 16 -150 -152 0
-8 -1 9 153 154 0
-8 -1 9 153 -154 0
-8 -1 9 -153 155 0
-8 -1 9 -153 -155 0
-16 9 -19 156 157 0
-16 9 -19 156 -157 0
-16 9 -19 -156 158 0
-16 9 -19 -156 -158 0
15 -3 13 159 160 0
15 -3 13 159 -160 0
15 -3 13 -159 161 0
15 -3 13 -159 -161 0
-3 16 -5 162 163 0
-3 16 -5 162 -163 0
-3 16 -5 -162 164 0
-3 16 -5 -162 -164 0
-4 -20 -2 165 166 0
-4 -20 -2 165 -166 0
-4 -20 -2 -165 167 0
-4 -20 -2 -165 -167 0
-6 -20 -18 168 169 0
-6 -20 -18 168 -169 0
-6 -20 -18 -168 170 0
-6 -20 -18 -168 -170 0
2 9 20 171 172 0
2 9 20 171 -172 0
2 9 20 -171 173 0
2 9 20 -171 -173 0
-1 -16 11 174 175 0
-1 -16 11 174 -175 0
-1 -16 11 -174 176 0
-1 -16 11 -174 -176 0
2 -19 -3 177 178 0
2 -19 -3 177 -178 0
2 -19 -3 -177 179 0
2 -19 -3 -177 -179 0
6 -14 12 180 181 0
6 -14 12 180 -181 0
6 -14 12 -180 182 0
6 -14 12 -180 -182 0
5 -19 -3 183 184 0
5 -19 -3 183 -184 0
5 -19 -3 -183 185 0
5 -19 -3 -183 -185 0
-13 -16 4 186 187 0
-13 -16 4 186 -187 0
-13 -16 4 -186 188 0
-13 -16 4 -186 -188 0
-20 -17 -1 189 190 0
-20 -17 -1 189 -190 0
-20 -17 -1 -189 191 0
-20 -17 -1 -189 -191 0
18 -12 16 192 193 0
18 -12 16 192 -193 0
18 -12 16 -192 194 0
18 -12 16 -192 -194 0
13 -3 -20 195 196 0
13 -3 -20 195 -196 0
13 -3 -20 -195 197 0
13 -3 -20 -195 -197 0
7 -15 12 198 199 0
7 -15 12 198 -199 0
7 -15 12 -198 200 0
7 -15 12 -198 -200 0
5 10 -20 201 202 0
5 10 -20 201 -202 0
5 10 -20 -201 203 0
5 10 -20 -201 -203 0
13 20 10 204 205 0
13 20 10 204 -205 0
13 20 10 -204 206 0
13 20 10 -204 -206 0
-15 -5 9 207 208 0
-15 -5 9 207 -208 0
-15 -5 9 -207 209 0
-15 -5 9 -207 -209 0
16 10 -5 210 211 0
16 10 -5 210 -211 0
16 10 -5 -210 212 0
16 10 -5 -210 -212 0
-1 14 18 213 214 0
-1 14 18 213 -214 0
-1 14 18 -213 215 0
-1 14 18 -213 -215 0
-19 12 7 216 217 0
-19 12 7 216 -217 0
-19 12 7 -216 218 0
-19 12 7 -216 -218 0
7 17 10 219 220 0
7 17 10 219 -220 0
7 17 10 -219 221 0
7 17 10 -219 -221 0
11 -13 -18 222 223 0
11 -13 -18 222 -223 0
11 -13 -18 -222 224 0
11 -13 -18 -222 -224 0
-11 18 -19 225 226 0
-11 18 -19 225 -226 0
-11 18 -19 -225 227 0
-11 18 -19 -225 -227 0
7 -10 16 228 229 0
7 -10 16 228 -229 0
7 -10 16 -228 230 0
7 -10 16 -228 -230 0
-3 6 -10 231 232 0
-3 6 -10 231 -232 0
-3 6 -10 -231 233 0
-3 6 -10 -231 -233 0
-4 -6 -13 234 235 0
-4 -6 -13 234 -235 0
-4 -6 -13 -234 236 0
-4 -6 -13 -234 -236 0
-19 2 10 237 238 0
-19 2 10 237 -238 0
-19 2 10 -237 239 0
-19 2 10 -237 -239 0
8 12 1 240 241 0
8 12 1 240 -241 0
8 12 1 -240 242 0
8 12 1 -240 -242 0
5 -11 -20 243 244 0
5 -11 -20 243 -244 0
5 -11 -20 -243 245 0
5 -11 -20 -243 -245 0
-4 -18 19 246 247 0
-4 -18 19 246 -247 0
-4 -18 19 -246 248 0
-4 -18 19 -246 -248 0
8 -19 14 249 250 0
8 -19 14 249 -250 0
8 -19 14 -249 251 0
8 -19 14 -249 -251 0
17 11 7 252 253 0
17 11 7 252 -253 0
17 11 7 -252 254 0
17 11 7 -252 -254 0
10 14 20 255 256 0
10 14 20 255 -256 0
10 14 20 -255 257 0
10 14 20 -255 -257 0
-20 5 15 258 259 0
-20 5 15 258 -259 0
-20 5 15 -258 260 0
-20 5 15 -258 -260 0
-12 9 7 261 262 0
-12 9 7 261 -262 0
-12 9 7 -261 263 0
-12 9 7 -261 -263 0
-19 9 -1 264 265 0
-19 9 -1 264 -265 0
-19 9 -1 -264 266 0
-19 9 -1 -264 -266 0
18 -6 -5 267 268 0
18 -6 -5 267 -268 0
18 -6 -5 -267 269 0
18 -6 -5 -267 -269 0
-12 -1 5 270 271 0
-12 -1 5 270 -271 0
-12 -1 5 -270 272 0
-12 -1 5 -270 -272 0
-16 11 -10 273 274 0
-16 11 -10 273 -274 0
-16 11 -10 -273 275 0
-16 11 -10 -273 -275 0
20 -1 4 276 277 0
20 -1 4 276 -277 0
20 -1 4 -276 278 0
20 -1 4 -276 -278 0
8 10 13 279 280 0
8 10 13 279 -280 0
8 10 13 -279 281 0
8 10 13 -279 -281 0
3 19 -7 282 283 0
3 19 -7 282 -283 0
3 19 -7 -282 284 0
3 19 -7 -282 -284 0
18 15 19 285 286 0
18 15 19 285 -286 0
18 15 19 -285 287 0
18 15 19 -285 -287 0
-7 -3 20 288 289 0
-7 -3 20 288 -289 0
-7 -3 20 -288 290 0
-7 -3 20 -288 -290 0
-11 -12 10 291 292 0
-11 -12 10 291 -292 0
-11 -12 10 -291 293 0
-11 -12 10 -291 -293 0
294 295 297 301 309 0
294 295 297 301 -309 0
294 295 297 -301 310 0
294 295 297 -301 -310 0
294 295 -297 302 311 0
294 295 -297 302 -311 0
294 295 -297 -302 312 0
294 295 -297 -302 -312 0
294 -295 298 303 313 0
294 -295 298 303 -313 0
294 -295 298 -303 314 0
294 -295 298 -303 -314 0
294 -295 -298 304 315 0
294 -295 -298 304 -315 0
294 -295 -298 -304 316 0
294 -295 -298 -304 -316 0
-294 296 299 305 317 0
-294 296 299 305 -317 0
-294 296 299 -305 318 0
-294 296 299 -305 -318 0
-294 296 -299 306 319 0
-294 296 -299 306 -319 0
-294 296 -299 -306 320 0
-294 296 -299 -306 -320 0
-294 -296 300 307 321 0
-294 -296 300 307 -321 0
-294 -296 300 -307 322 0
-294 -296 300 -307 -322 0
-294 -296 -300 308 323 0
-294 -296 -300 308 -323 0
-294 -296 -300 -308 324 0
-294 -296 -300 -308 -324 0
325 326 328 332 340 0
325 326 328 332 -340 0
325 326 328 -332 341 0
325 326 328 -332 -341 0
325 326 -328 333 342 0
325 326 -328 333 -342 0
325 326 -328 -333 343 0
325 326 -328 -333 -343 0
325 -326 329 334 344 0
325 -326 329 334 -344 0
325 -326 329 -334 345 0
325 -326 329 -334 -345 0
325 -326 -329 335 346 0
325 -326 -329 335 -346 0
325 -326 -329 -335 347 0
325 -326 -329 -335 -347 0
-325 327 330 336 348 0
-325 327 330 336 -348 0
-325 327 330 -336 349 0
-325 327 330 -336 -349 0
-325 327 -330 337 350 0
-325 327 -330 337 -350 0
-325 327 -330 -337 351 0
-325 327 -330 -337 -351 0
-325 -327 331 338 352 0
-325 -327 331 338 -352 0
-325 -327 331 -338 353 0
-325 -327 331 -338 -353 0
-325 -327 -331 339 354 0
-325 -327 -331 339 -354 0
-325 -327 -331 -339 355 0
-325 -327 -331 -339 -355 0
356 357 359 363 371 0
356 357 359 363 -371 0
356 357 359 -363 372 0
356 357 359 -363 -372 0
356 357 -359 364 373 0
356 357 -359 364 -373 0
356 357 -359 -364 374 0
356 357 -359 -364 -374 0
356 -357 360 365 375 0
356 -357 360 365 -375 0
356 -357 360 -365 376 0
356 -357 360 -365 -376 0
356 -357 -360 366 377 0
356 -357 -360 366 -377 0
356 -357 -360 -366 378 0
356 -357 -360 -366 -378 0
-356 358 361 367 379 0
-356 358 361 367 -379 0
-356 358 361 -367 380 0
-356 358 361 -367 -380 0
-356 358 -361 368 381 0
-356 358 -361 368 -381 0
-356 358 -361 -368 382 0
-356 358 -361 -368 -382 0
-356 -358 362 369 383 0
-356 -358 362 369 -383 0
-356 -358 362 -369 384 0
-356 -358 362 -369 -384 0
-356 -358 -362 370 385 0
-356 -358 -362 370 -385 0
-356 -358 -362 -370 386 0
-356 -358 -362 -370 -386 0

